(set-logic ALL)
(set-option :produce-models true)
(declare-sort BoundSet 0)
(declare-sort UnboundSet 0)
(set-option :finite-model-find true)
(declare-fun IsAthletic (BoundSet) Bool)
(declare-fun Runs (BoundSet) Bool)
(declare-fun IsRelatedTo (BoundSet BoundSet) Bool)
(assert (not (=> (and (exists ((a BoundSet)) (and (IsAthletic a) (Runs a))) (and (forall ((e BoundSet)) (forall ((f BoundSet)) (forall ((d BoundSet)) (=> (IsAthletic d) (IsRelatedTo e f))))) (forall ((i BoundSet)) (forall ((g BoundSet)) (forall ((h BoundSet)) (=> (IsRelatedTo g h) (IsAthletic i))))))) (exists ((b BoundSet)) (exists ((c BoundSet)) (IsRelatedTo b c))))))
(check-sat)
(get-model)